/* Cplex Data generated on 2017-12-15 */

k = 68;

b = 34;

AtomicConstraints = {
	 <1, 35>,
	 <1, 13>,
	 <1, 14>,
	 <1, 39>,
	 <1, 38>,
	 <1, 37>,
	 <1, 15>,
	 <1, 16>,
	 <1, 17>,
	 <1, 44>,
	 <1, 45>,
	 <1, 46>,
	 <1, 18>,
	 <1, 19>,
	 <1, 20>,
	 <1, 21>,
	 <1, 22>,
	 <1, 51>,
	 <1, 52>,
	 <1, 24>,
	 <1, 25>,
	 <1, 57>,
	 <1, 26>,
	 <1, 27>,
	 <1, 61>,
	 <1, 28>,
	 <1, 60>,
	 <1, 29>,
	 <1, 30>,
	 <1, 31>,
	 <1, 32>,
	 <1, 33>,
	 <1, 54>,
	 <1, 67>,
	 <1, 66>,
	 <1, 47>,
	 <1, 58>,
	 <1, 56>,
	 <1, 43>,
	 <1, 55>,
	 <1, 42>,
	 <1, 64>,
	 <1, 36>,
	 <1, 40>,
	 <1, 62>,
	 <1, 48>,
	 <1, 53>,
	 <1, 59>,
	 <1, 65>,
	 <1, 50>,
	 <1, 49>,
	 <1, 41>,
	 <1, 34>,
	 <1, 63>,
	 <1, 68>,
	 <3, 1>,
	 <3, 2>,
	 <3, 5>,
	 <3, 35>,
	 <3, 13>,
	 <3, 14>,
	 <3, 39>,
	 <3, 38>,
	 <3, 37>,
	 <3, 15>,
	 <3, 16>,
	 <3, 17>,
	 <3, 44>,
	 <3, 45>,
	 <3, 46>,
	 <3, 18>,
	 <3, 19>,
	 <3, 20>,
	 <3, 21>,
	 <3, 22>,
	 <3, 23>,
	 <3, 51>,
	 <3, 52>,
	 <3, 24>,
	 <3, 25>,
	 <3, 57>,
	 <3, 26>,
	 <3, 27>,
	 <3, 61>,
	 <3, 28>,
	 <3, 60>,
	 <3, 29>,
	 <3, 30>,
	 <3, 31>,
	 <3, 32>,
	 <3, 33>,
	 <3, 54>,
	 <3, 67>,
	 <3, 66>,
	 <3, 47>,
	 <3, 58>,
	 <3, 56>,
	 <3, 43>,
	 <3, 55>,
	 <3, 42>,
	 <3, 64>,
	 <3, 36>,
	 <3, 40>,
	 <3, 62>,
	 <3, 48>,
	 <3, 53>,
	 <3, 59>,
	 <3, 65>,
	 <3, 50>,
	 <3, 49>,
	 <3, 41>,
	 <3, 34>,
	 <3, 63>,
	 <3, 68>,
	 <4, 1>,
	 <4, 2>,
	 <4, 5>,
	 <4, 9>,
	 <4, 35>,
	 <4, 13>,
	 <4, 14>,
	 <4, 39>,
	 <4, 38>,
	 <4, 37>,
	 <4, 15>,
	 <4, 16>,
	 <4, 17>,
	 <4, 44>,
	 <4, 45>,
	 <4, 46>,
	 <4, 18>,
	 <4, 19>,
	 <4, 20>,
	 <4, 21>,
	 <4, 22>,
	 <4, 23>,
	 <4, 51>,
	 <4, 52>,
	 <4, 24>,
	 <4, 25>,
	 <4, 57>,
	 <4, 26>,
	 <4, 61>,
	 <4, 28>,
	 <4, 60>,
	 <4, 29>,
	 <4, 30>,
	 <4, 31>,
	 <4, 32>,
	 <4, 33>,
	 <4, 54>,
	 <4, 67>,
	 <4, 66>,
	 <4, 47>,
	 <4, 58>,
	 <4, 56>,
	 <4, 43>,
	 <4, 55>,
	 <4, 42>,
	 <4, 64>,
	 <4, 36>,
	 <4, 40>,
	 <4, 62>,
	 <4, 48>,
	 <4, 53>,
	 <4, 59>,
	 <4, 65>,
	 <4, 50>,
	 <4, 49>,
	 <4, 41>,
	 <4, 34>,
	 <4, 63>,
	 <4, 68>,
	 <2, 35>,
	 <2, 13>,
	 <2, 14>,
	 <2, 39>,
	 <2, 38>,
	 <2, 37>,
	 <2, 15>,
	 <2, 16>,
	 <2, 17>,
	 <2, 44>,
	 <2, 45>,
	 <2, 46>,
	 <2, 18>,
	 <2, 19>,
	 <2, 20>,
	 <2, 21>,
	 <2, 22>,
	 <2, 23>,
	 <2, 51>,
	 <2, 52>,
	 <2, 24>,
	 <2, 25>,
	 <2, 57>,
	 <2, 26>,
	 <2, 61>,
	 <2, 28>,
	 <2, 60>,
	 <2, 29>,
	 <2, 30>,
	 <2, 31>,
	 <2, 32>,
	 <2, 33>,
	 <2, 54>,
	 <2, 67>,
	 <2, 66>,
	 <2, 47>,
	 <2, 58>,
	 <2, 56>,
	 <2, 43>,
	 <2, 55>,
	 <2, 42>,
	 <2, 64>,
	 <2, 36>,
	 <2, 40>,
	 <2, 62>,
	 <2, 48>,
	 <2, 53>,
	 <2, 59>,
	 <2, 65>,
	 <2, 50>,
	 <2, 49>,
	 <2, 41>,
	 <2, 34>,
	 <2, 63>,
	 <2, 68>,
	 <6, 5>,
	 <6, 9>,
	 <6, 10>,
	 <6, 11>,
	 <6, 39>,
	 <6, 38>,
	 <6, 37>,
	 <6, 15>,
	 <6, 16>,
	 <6, 17>,
	 <6, 44>,
	 <6, 45>,
	 <6, 46>,
	 <6, 18>,
	 <6, 19>,
	 <6, 20>,
	 <6, 21>,
	 <6, 22>,
	 <6, 23>,
	 <6, 51>,
	 <6, 52>,
	 <6, 24>,
	 <6, 25>,
	 <6, 57>,
	 <6, 26>,
	 <6, 61>,
	 <6, 28>,
	 <6, 60>,
	 <6, 29>,
	 <6, 30>,
	 <6, 31>,
	 <6, 32>,
	 <6, 33>,
	 <6, 54>,
	 <6, 67>,
	 <6, 66>,
	 <6, 47>,
	 <6, 58>,
	 <6, 56>,
	 <6, 43>,
	 <6, 55>,
	 <6, 42>,
	 <6, 64>,
	 <6, 36>,
	 <6, 40>,
	 <6, 62>,
	 <6, 48>,
	 <6, 53>,
	 <6, 59>,
	 <6, 65>,
	 <6, 50>,
	 <6, 49>,
	 <6, 41>,
	 <6, 34>,
	 <6, 63>,
	 <6, 68>,
	 <7, 9>,
	 <7, 10>,
	 <7, 11>,
	 <7, 12>,
	 <7, 37>,
	 <7, 15>,
	 <7, 16>,
	 <7, 17>,
	 <7, 44>,
	 <7, 45>,
	 <7, 46>,
	 <7, 18>,
	 <7, 19>,
	 <7, 20>,
	 <7, 21>,
	 <7, 22>,
	 <7, 23>,
	 <7, 51>,
	 <7, 52>,
	 <7, 24>,
	 <7, 57>,
	 <7, 26>,
	 <7, 61>,
	 <7, 28>,
	 <7, 60>,
	 <7, 29>,
	 <7, 30>,
	 <7, 31>,
	 <7, 32>,
	 <7, 33>,
	 <7, 54>,
	 <7, 67>,
	 <7, 66>,
	 <7, 47>,
	 <7, 58>,
	 <7, 56>,
	 <7, 43>,
	 <7, 55>,
	 <7, 42>,
	 <7, 64>,
	 <7, 36>,
	 <7, 40>,
	 <7, 62>,
	 <7, 48>,
	 <7, 53>,
	 <7, 59>,
	 <7, 65>,
	 <7, 50>,
	 <7, 49>,
	 <7, 41>,
	 <7, 34>,
	 <7, 63>,
	 <7, 68>,
	 <8, 10>,
	 <8, 11>,
	 <8, 12>,
	 <8, 15>,
	 <8, 16>,
	 <8, 44>,
	 <8, 45>,
	 <8, 46>,
	 <8, 18>,
	 <8, 19>,
	 <8, 20>,
	 <8, 21>,
	 <8, 22>,
	 <8, 23>,
	 <8, 51>,
	 <8, 52>,
	 <8, 24>,
	 <8, 26>,
	 <8, 61>,
	 <8, 28>,
	 <8, 60>,
	 <8, 29>,
	 <8, 30>,
	 <8, 31>,
	 <8, 32>,
	 <8, 33>,
	 <8, 54>,
	 <8, 67>,
	 <8, 66>,
	 <8, 47>,
	 <8, 58>,
	 <8, 56>,
	 <8, 43>,
	 <8, 55>,
	 <8, 42>,
	 <8, 64>,
	 <8, 36>,
	 <8, 40>,
	 <8, 62>,
	 <8, 48>,
	 <8, 53>,
	 <8, 59>,
	 <8, 65>,
	 <8, 50>,
	 <8, 49>,
	 <8, 41>,
	 <8, 34>,
	 <8, 63>,
	 <8, 68>,
	 <5, 13>,
	 <5, 39>,
	 <5, 38>,
	 <5, 37>,
	 <5, 15>,
	 <5, 16>,
	 <5, 17>,
	 <5, 44>,
	 <5, 45>,
	 <5, 46>,
	 <5, 18>,
	 <5, 19>,
	 <5, 20>,
	 <5, 21>,
	 <5, 22>,
	 <5, 23>,
	 <5, 51>,
	 <5, 52>,
	 <5, 24>,
	 <5, 25>,
	 <5, 57>,
	 <5, 26>,
	 <5, 61>,
	 <5, 28>,
	 <5, 60>,
	 <5, 29>,
	 <5, 30>,
	 <5, 31>,
	 <5, 32>,
	 <5, 33>,
	 <5, 54>,
	 <5, 67>,
	 <5, 66>,
	 <5, 47>,
	 <5, 58>,
	 <5, 56>,
	 <5, 43>,
	 <5, 55>,
	 <5, 42>,
	 <5, 64>,
	 <5, 36>,
	 <5, 40>,
	 <5, 62>,
	 <5, 48>,
	 <5, 53>,
	 <5, 59>,
	 <5, 65>,
	 <5, 50>,
	 <5, 49>,
	 <5, 41>,
	 <5, 34>,
	 <5, 63>,
	 <5, 68>,
	 <9, 39>,
	 <9, 38>,
	 <9, 37>,
	 <9, 15>,
	 <9, 16>,
	 <9, 17>,
	 <9, 44>,
	 <9, 45>,
	 <9, 46>,
	 <9, 18>,
	 <9, 19>,
	 <9, 20>,
	 <9, 21>,
	 <9, 22>,
	 <9, 23>,
	 <9, 51>,
	 <9, 52>,
	 <9, 24>,
	 <9, 25>,
	 <9, 57>,
	 <9, 26>,
	 <9, 61>,
	 <9, 28>,
	 <9, 60>,
	 <9, 29>,
	 <9, 30>,
	 <9, 31>,
	 <9, 32>,
	 <9, 33>,
	 <9, 54>,
	 <9, 67>,
	 <9, 66>,
	 <9, 47>,
	 <9, 58>,
	 <9, 56>,
	 <9, 43>,
	 <9, 55>,
	 <9, 42>,
	 <9, 64>,
	 <9, 36>,
	 <9, 40>,
	 <9, 62>,
	 <9, 48>,
	 <9, 53>,
	 <9, 59>,
	 <9, 65>,
	 <9, 50>,
	 <9, 49>,
	 <9, 41>,
	 <9, 34>,
	 <9, 63>,
	 <9, 68>,
	 <10, 37>,
	 <10, 15>,
	 <10, 16>,
	 <10, 17>,
	 <10, 44>,
	 <10, 45>,
	 <10, 46>,
	 <10, 18>,
	 <10, 19>,
	 <10, 20>,
	 <10, 21>,
	 <10, 22>,
	 <10, 23>,
	 <10, 51>,
	 <10, 52>,
	 <10, 24>,
	 <10, 57>,
	 <10, 26>,
	 <10, 61>,
	 <10, 28>,
	 <10, 60>,
	 <10, 29>,
	 <10, 30>,
	 <10, 31>,
	 <10, 32>,
	 <10, 33>,
	 <10, 54>,
	 <10, 67>,
	 <10, 66>,
	 <10, 47>,
	 <10, 58>,
	 <10, 56>,
	 <10, 43>,
	 <10, 55>,
	 <10, 42>,
	 <10, 64>,
	 <10, 36>,
	 <10, 40>,
	 <10, 62>,
	 <10, 48>,
	 <10, 53>,
	 <10, 59>,
	 <10, 65>,
	 <10, 50>,
	 <10, 49>,
	 <10, 41>,
	 <10, 34>,
	 <10, 63>,
	 <10, 68>,
	 <11, 15>,
	 <11, 16>,
	 <11, 44>,
	 <11, 45>,
	 <11, 46>,
	 <11, 18>,
	 <11, 19>,
	 <11, 20>,
	 <11, 21>,
	 <11, 22>,
	 <11, 23>,
	 <11, 51>,
	 <11, 52>,
	 <11, 24>,
	 <11, 26>,
	 <11, 61>,
	 <11, 28>,
	 <11, 60>,
	 <11, 29>,
	 <11, 30>,
	 <11, 31>,
	 <11, 32>,
	 <11, 33>,
	 <11, 54>,
	 <11, 67>,
	 <11, 66>,
	 <11, 47>,
	 <11, 58>,
	 <11, 56>,
	 <11, 43>,
	 <11, 55>,
	 <11, 42>,
	 <11, 64>,
	 <11, 36>,
	 <11, 40>,
	 <11, 62>,
	 <11, 48>,
	 <11, 53>,
	 <11, 59>,
	 <11, 65>,
	 <11, 50>,
	 <11, 49>,
	 <11, 41>,
	 <11, 34>,
	 <11, 63>,
	 <11, 68>,
	 <12, 15>,
	 <12, 16>,
	 <12, 45>,
	 <12, 46>,
	 <12, 18>,
	 <12, 19>,
	 <12, 20>,
	 <12, 21>,
	 <12, 22>,
	 <12, 23>,
	 <12, 51>,
	 <12, 52>,
	 <12, 24>,
	 <12, 61>,
	 <12, 28>,
	 <12, 60>,
	 <12, 29>,
	 <12, 30>,
	 <12, 31>,
	 <12, 32>,
	 <12, 33>,
	 <12, 54>,
	 <12, 67>,
	 <12, 66>,
	 <12, 47>,
	 <12, 58>,
	 <12, 56>,
	 <12, 43>,
	 <12, 55>,
	 <12, 42>,
	 <12, 64>,
	 <12, 36>,
	 <12, 40>,
	 <12, 62>,
	 <12, 48>,
	 <12, 53>,
	 <12, 59>,
	 <12, 65>,
	 <12, 50>,
	 <12, 49>,
	 <12, 41>,
	 <12, 34>,
	 <12, 63>,
	 <12, 68>,
	 <35, 56>,
	 <35, 43>,
	 <35, 55>,
	 <35, 42>,
	 <35, 64>,
	 <35, 36>,
	 <35, 40>,
	 <35, 62>,
	 <35, 48>,
	 <35, 53>,
	 <35, 59>,
	 <35, 65>,
	 <35, 50>,
	 <14, 35>,
	 <14, 13>,
	 <14, 39>,
	 <14, 56>,
	 <14, 43>,
	 <14, 55>,
	 <14, 42>,
	 <14, 64>,
	 <14, 36>,
	 <14, 40>,
	 <14, 62>,
	 <14, 48>,
	 <14, 53>,
	 <14, 59>,
	 <14, 65>,
	 <14, 50>,
	 <14, 63>,
	 <13, 56>,
	 <13, 43>,
	 <13, 55>,
	 <13, 42>,
	 <13, 64>,
	 <13, 36>,
	 <13, 40>,
	 <13, 62>,
	 <13, 48>,
	 <13, 53>,
	 <13, 59>,
	 <13, 65>,
	 <13, 50>,
	 <38, 13>,
	 <38, 39>,
	 <38, 17>,
	 <38, 44>,
	 <38, 56>,
	 <38, 43>,
	 <38, 55>,
	 <38, 42>,
	 <38, 64>,
	 <38, 36>,
	 <38, 40>,
	 <38, 62>,
	 <38, 48>,
	 <38, 53>,
	 <38, 59>,
	 <38, 65>,
	 <38, 50>,
	 <38, 49>,
	 <38, 63>,
	 <38, 68>,
	 <37, 39>,
	 <37, 17>,
	 <37, 44>,
	 <37, 45>,
	 <37, 56>,
	 <37, 43>,
	 <37, 55>,
	 <37, 42>,
	 <37, 64>,
	 <37, 36>,
	 <37, 40>,
	 <37, 62>,
	 <37, 48>,
	 <37, 53>,
	 <37, 59>,
	 <37, 65>,
	 <37, 50>,
	 <37, 49>,
	 <37, 41>,
	 <37, 63>,
	 <37, 68>,
	 <15, 17>,
	 <15, 44>,
	 <15, 45>,
	 <15, 46>,
	 <15, 56>,
	 <15, 43>,
	 <15, 55>,
	 <15, 42>,
	 <15, 64>,
	 <15, 36>,
	 <15, 40>,
	 <15, 62>,
	 <15, 48>,
	 <15, 53>,
	 <15, 59>,
	 <15, 65>,
	 <15, 50>,
	 <15, 49>,
	 <15, 41>,
	 <15, 34>,
	 <15, 63>,
	 <15, 68>,
	 <16, 44>,
	 <16, 45>,
	 <16, 46>,
	 <16, 18>,
	 <16, 56>,
	 <16, 43>,
	 <16, 55>,
	 <16, 42>,
	 <16, 64>,
	 <16, 36>,
	 <16, 40>,
	 <16, 62>,
	 <16, 48>,
	 <16, 53>,
	 <16, 59>,
	 <16, 65>,
	 <16, 50>,
	 <16, 49>,
	 <16, 41>,
	 <16, 34>,
	 <16, 63>,
	 <16, 68>,
	 <39, 56>,
	 <39, 43>,
	 <39, 55>,
	 <39, 42>,
	 <39, 64>,
	 <39, 36>,
	 <39, 40>,
	 <39, 62>,
	 <39, 48>,
	 <39, 53>,
	 <39, 59>,
	 <39, 65>,
	 <39, 50>,
	 <39, 63>,
	 <17, 56>,
	 <17, 43>,
	 <17, 55>,
	 <17, 42>,
	 <17, 64>,
	 <17, 36>,
	 <17, 40>,
	 <17, 62>,
	 <17, 48>,
	 <17, 53>,
	 <17, 59>,
	 <17, 65>,
	 <17, 50>,
	 <17, 63>,
	 <17, 68>,
	 <44, 56>,
	 <44, 43>,
	 <44, 55>,
	 <44, 42>,
	 <44, 64>,
	 <44, 36>,
	 <44, 40>,
	 <44, 62>,
	 <44, 48>,
	 <44, 53>,
	 <44, 59>,
	 <44, 65>,
	 <44, 50>,
	 <44, 49>,
	 <44, 63>,
	 <44, 68>,
	 <45, 56>,
	 <45, 43>,
	 <45, 55>,
	 <45, 42>,
	 <45, 64>,
	 <45, 36>,
	 <45, 40>,
	 <45, 62>,
	 <45, 48>,
	 <45, 53>,
	 <45, 59>,
	 <45, 65>,
	 <45, 50>,
	 <45, 49>,
	 <45, 41>,
	 <45, 63>,
	 <45, 68>,
	 <46, 56>,
	 <46, 43>,
	 <46, 55>,
	 <46, 42>,
	 <46, 64>,
	 <46, 36>,
	 <46, 40>,
	 <46, 62>,
	 <46, 48>,
	 <46, 53>,
	 <46, 59>,
	 <46, 65>,
	 <46, 50>,
	 <46, 49>,
	 <46, 41>,
	 <46, 34>,
	 <46, 63>,
	 <46, 68>,
	 <18, 56>,
	 <18, 43>,
	 <18, 55>,
	 <18, 42>,
	 <18, 64>,
	 <18, 36>,
	 <18, 40>,
	 <18, 62>,
	 <18, 48>,
	 <18, 53>,
	 <18, 59>,
	 <18, 65>,
	 <18, 50>,
	 <18, 49>,
	 <18, 41>,
	 <18, 34>,
	 <18, 63>,
	 <18, 68>,
	 <19, 43>,
	 <19, 55>,
	 <19, 42>,
	 <19, 64>,
	 <19, 36>,
	 <19, 40>,
	 <19, 62>,
	 <19, 48>,
	 <19, 53>,
	 <19, 59>,
	 <19, 65>,
	 <19, 50>,
	 <19, 49>,
	 <19, 41>,
	 <19, 34>,
	 <19, 63>,
	 <19, 68>,
	 <20, 51>,
	 <20, 52>,
	 <20, 61>,
	 <20, 28>,
	 <20, 60>,
	 <20, 29>,
	 <20, 30>,
	 <20, 31>,
	 <20, 32>,
	 <20, 33>,
	 <20, 40>,
	 <20, 62>,
	 <20, 48>,
	 <20, 53>,
	 <20, 59>,
	 <20, 65>,
	 <20, 50>,
	 <20, 49>,
	 <20, 41>,
	 <20, 34>,
	 <20, 63>,
	 <20, 68>,
	 <21, 51>,
	 <21, 52>,
	 <21, 61>,
	 <21, 28>,
	 <21, 60>,
	 <21, 29>,
	 <21, 30>,
	 <21, 31>,
	 <21, 32>,
	 <21, 33>,
	 <21, 62>,
	 <21, 48>,
	 <21, 53>,
	 <21, 59>,
	 <21, 65>,
	 <21, 50>,
	 <21, 49>,
	 <21, 41>,
	 <21, 34>,
	 <21, 63>,
	 <21, 68>,
	 <22, 52>,
	 <22, 61>,
	 <22, 28>,
	 <22, 60>,
	 <22, 29>,
	 <22, 30>,
	 <22, 31>,
	 <22, 32>,
	 <22, 33>,
	 <22, 48>,
	 <22, 53>,
	 <22, 59>,
	 <22, 65>,
	 <22, 50>,
	 <22, 49>,
	 <22, 41>,
	 <22, 34>,
	 <22, 63>,
	 <22, 68>,
	 <23, 61>,
	 <23, 28>,
	 <23, 60>,
	 <23, 29>,
	 <23, 30>,
	 <23, 31>,
	 <23, 32>,
	 <23, 33>,
	 <23, 53>,
	 <23, 59>,
	 <23, 65>,
	 <23, 50>,
	 <23, 49>,
	 <23, 41>,
	 <23, 34>,
	 <23, 63>,
	 <23, 68>,
	 <51, 61>,
	 <51, 28>,
	 <51, 60>,
	 <51, 29>,
	 <51, 30>,
	 <51, 31>,
	 <51, 32>,
	 <51, 33>,
	 <51, 40>,
	 <51, 62>,
	 <51, 48>,
	 <51, 53>,
	 <51, 59>,
	 <51, 65>,
	 <51, 50>,
	 <51, 49>,
	 <51, 41>,
	 <51, 34>,
	 <51, 63>,
	 <51, 68>,
	 <52, 61>,
	 <52, 28>,
	 <52, 60>,
	 <52, 29>,
	 <52, 30>,
	 <52, 31>,
	 <52, 32>,
	 <52, 33>,
	 <52, 62>,
	 <52, 48>,
	 <52, 53>,
	 <52, 59>,
	 <52, 65>,
	 <52, 50>,
	 <52, 49>,
	 <52, 41>,
	 <52, 34>,
	 <52, 63>,
	 <52, 68>,
	 <24, 18>,
	 <24, 19>,
	 <24, 54>,
	 <24, 67>,
	 <24, 66>,
	 <24, 47>,
	 <24, 58>,
	 <24, 43>,
	 <24, 55>,
	 <24, 42>,
	 <24, 64>,
	 <24, 36>,
	 <24, 40>,
	 <24, 62>,
	 <24, 48>,
	 <24, 53>,
	 <24, 59>,
	 <24, 65>,
	 <24, 50>,
	 <24, 49>,
	 <24, 41>,
	 <24, 34>,
	 <24, 63>,
	 <24, 68>,
	 <25, 13>,
	 <25, 14>,
	 <25, 39>,
	 <25, 38>,
	 <25, 37>,
	 <25, 15>,
	 <25, 16>,
	 <25, 17>,
	 <25, 44>,
	 <25, 45>,
	 <25, 46>,
	 <25, 18>,
	 <25, 19>,
	 <25, 54>,
	 <25, 67>,
	 <25, 66>,
	 <25, 47>,
	 <25, 58>,
	 <25, 56>,
	 <25, 43>,
	 <25, 55>,
	 <25, 42>,
	 <25, 64>,
	 <25, 36>,
	 <25, 40>,
	 <25, 62>,
	 <25, 48>,
	 <25, 53>,
	 <25, 59>,
	 <25, 65>,
	 <25, 50>,
	 <25, 49>,
	 <25, 41>,
	 <25, 34>,
	 <25, 63>,
	 <25, 68>,
	 <57, 39>,
	 <57, 38>,
	 <57, 37>,
	 <57, 15>,
	 <57, 16>,
	 <57, 17>,
	 <57, 44>,
	 <57, 45>,
	 <57, 46>,
	 <57, 18>,
	 <57, 19>,
	 <57, 54>,
	 <57, 67>,
	 <57, 66>,
	 <57, 47>,
	 <57, 58>,
	 <57, 56>,
	 <57, 43>,
	 <57, 55>,
	 <57, 42>,
	 <57, 64>,
	 <57, 36>,
	 <57, 40>,
	 <57, 62>,
	 <57, 48>,
	 <57, 53>,
	 <57, 59>,
	 <57, 65>,
	 <57, 50>,
	 <57, 49>,
	 <57, 41>,
	 <57, 34>,
	 <57, 63>,
	 <57, 68>,
	 <26, 37>,
	 <26, 15>,
	 <26, 16>,
	 <26, 17>,
	 <26, 44>,
	 <26, 45>,
	 <26, 46>,
	 <26, 18>,
	 <26, 19>,
	 <26, 54>,
	 <26, 67>,
	 <26, 66>,
	 <26, 47>,
	 <26, 58>,
	 <26, 56>,
	 <26, 43>,
	 <26, 55>,
	 <26, 42>,
	 <26, 64>,
	 <26, 36>,
	 <26, 40>,
	 <26, 62>,
	 <26, 48>,
	 <26, 53>,
	 <26, 59>,
	 <26, 65>,
	 <26, 50>,
	 <26, 49>,
	 <26, 41>,
	 <26, 34>,
	 <26, 63>,
	 <26, 68>,
	 <27, 35>,
	 <27, 13>,
	 <27, 14>,
	 <27, 39>,
	 <27, 38>,
	 <27, 37>,
	 <27, 15>,
	 <27, 16>,
	 <27, 17>,
	 <27, 44>,
	 <27, 45>,
	 <27, 46>,
	 <27, 18>,
	 <27, 19>,
	 <27, 54>,
	 <27, 67>,
	 <27, 66>,
	 <27, 47>,
	 <27, 58>,
	 <27, 56>,
	 <27, 43>,
	 <27, 55>,
	 <27, 42>,
	 <27, 64>,
	 <27, 36>,
	 <27, 40>,
	 <27, 62>,
	 <27, 48>,
	 <27, 53>,
	 <27, 59>,
	 <27, 65>,
	 <27, 50>,
	 <27, 49>,
	 <27, 41>,
	 <27, 34>,
	 <27, 63>,
	 <27, 68>,
	 <28, 59>,
	 <28, 65>,
	 <28, 50>,
	 <28, 49>,
	 <28, 41>,
	 <28, 34>,
	 <28, 63>,
	 <28, 68>,
	 <61, 33>,
	 <61, 59>,
	 <61, 65>,
	 <61, 50>,
	 <61, 49>,
	 <61, 41>,
	 <61, 34>,
	 <61, 63>,
	 <61, 68>,
	 <60, 28>,
	 <60, 33>,
	 <60, 59>,
	 <60, 65>,
	 <60, 50>,
	 <60, 49>,
	 <60, 41>,
	 <60, 34>,
	 <60, 63>,
	 <60, 68>,
	 <29, 28>,
	 <29, 33>,
	 <29, 59>,
	 <29, 65>,
	 <29, 50>,
	 <29, 49>,
	 <29, 41>,
	 <29, 34>,
	 <29, 63>,
	 <29, 68>,
	 <30, 28>,
	 <30, 59>,
	 <30, 65>,
	 <30, 50>,
	 <30, 49>,
	 <30, 41>,
	 <30, 34>,
	 <30, 63>,
	 <30, 68>,
	 <31, 28>,
	 <31, 65>,
	 <31, 50>,
	 <31, 49>,
	 <31, 41>,
	 <31, 34>,
	 <31, 63>,
	 <31, 68>,
	 <32, 49>,
	 <32, 41>,
	 <32, 34>,
	 <32, 63>,
	 <32, 68>,
	 <33, 59>,
	 <33, 65>,
	 <33, 50>,
	 <33, 49>,
	 <33, 41>,
	 <33, 34>,
	 <33, 63>,
	 <33, 68>,
	 <54, 46>,
	 <54, 18>,
	 <54, 19>,
	 <54, 43>,
	 <54, 55>,
	 <54, 42>,
	 <54, 64>,
	 <54, 36>,
	 <54, 40>,
	 <54, 62>,
	 <54, 48>,
	 <54, 53>,
	 <54, 59>,
	 <54, 65>,
	 <54, 50>,
	 <54, 49>,
	 <54, 41>,
	 <54, 34>,
	 <54, 63>,
	 <54, 68>,
	 <67, 18>,
	 <67, 19>,
	 <67, 55>,
	 <67, 42>,
	 <67, 64>,
	 <67, 36>,
	 <67, 40>,
	 <67, 62>,
	 <67, 48>,
	 <67, 53>,
	 <67, 59>,
	 <67, 65>,
	 <67, 50>,
	 <67, 49>,
	 <67, 41>,
	 <67, 34>,
	 <67, 63>,
	 <67, 68>,
	 <66, 19>,
	 <66, 42>,
	 <66, 64>,
	 <66, 36>,
	 <66, 40>,
	 <66, 62>,
	 <66, 48>,
	 <66, 53>,
	 <66, 59>,
	 <66, 65>,
	 <66, 50>,
	 <66, 49>,
	 <66, 41>,
	 <66, 34>,
	 <66, 63>,
	 <66, 68>,
	 <47, 64>,
	 <47, 36>,
	 <47, 40>,
	 <47, 62>,
	 <47, 48>,
	 <47, 53>,
	 <47, 59>,
	 <47, 65>,
	 <47, 50>,
	 <47, 49>,
	 <47, 41>,
	 <47, 34>,
	 <47, 63>,
	 <47, 68>,
	 <58, 64>,
	 <58, 36>,
	 <58, 40>,
	 <58, 62>,
	 <58, 48>,
	 <58, 53>,
	 <58, 59>,
	 <58, 65>,
	 <58, 50>,
	 <58, 49>,
	 <58, 41>,
	 <58, 34>,
	 <58, 63>,
	 <58, 68>,
	 <59, 50>,
	 <65, 50>,
	 <41, 49>,
	 <41, 63>,
	 <41, 68>,
	 <34, 49>,
	 <34, 68>,
	 }; 

SoftAtomicConstraints = {
	 <1, 2>,
	 <3, 4>,
	 <2, 5>,
	 <4, 6>,
	 <6, 7>,
	 <7, 8>,
	 <5, 9>,
	 <9, 10>,
	 <10, 11>,
	 <11, 12>,
	 <35, 13>,
	 <37, 15>,
	 <15, 16>,
	 <39, 17>,
	 <46, 18>,
	 <18, 19>,
	 <20, 21>,
	 <21, 22>,
	 <22, 23>,
	 <27, 24>,
	 <57, 26>,
	 <33, 28>,
	 <60, 29>,
	 <29, 30>,
	 <30, 31>,
	 <31, 32>,
	 <41, 34>,
	 <38, 37>,
	 <14, 38>,
	 <13, 39>,
	 <36, 40>,
	 <65, 41>,
	 <55, 42>,
	 <56, 43>,
	 <17, 44>,
	 <44, 45>,
	 <45, 46>,
	 <66, 47>,
	 <62, 48>,
	 <68, 49>,
	 <64, 50>,
	 <51, 52>,
	 <48, 53>,
	 <43, 55>,
	 <25, 57>,
	 <47, 58>,
	 <53, 59>,
	 <61, 60>,
	 <40, 62>,
	 <50, 63>,
	 <42, 64>,
	 <59, 65>,
	 <67, 66>,
	 <54, 67>,
	 <63, 68>,
	 }; 

DisjunctiveConstraints = {
	 <1, 27, 61, 1>,
	 <1, 48, 1, 14>,
	 <3, 27, 61, 3>,
	 <3, 48, 3, 14>,
	 <4, 3, 4, 6>,
	 <4, 47, 4, 13>,
	 <2, 1, 2, 5>,
	 <2, 47, 2, 13>,
	 <6, 4, 6, 7>,
	 <6, 35, 1, 6>,
	 <6, 14, 48, 6>,
	 <6, 37, 6, 3>,
	 <6, 17, 6, 51>,
	 <6, 23, 6, 57>,
	 <6, 25, 59, 6>,
	 <7, 6, 7, 8>,
	 <7, 13, 47, 7>,
	 <7, 38, 4, 7>,
	 <7, 39, 5, 7>,
	 <7, 57, 23, 7>,
	 <7, 60, 7, 26>,
	 <7, 49, 7, 15>,
	 <8, 38, 4, 8>,
	 <8, 37, 3, 8>,
	 <8, 39, 5, 8>,
	 <8, 17, 51, 8>,
	 <8, 26, 60, 8>,
	 <8, 50, 8, 16>,
	 <8, 49, 8, 15>,
	 <5, 2, 5, 9>,
	 <5, 35, 1, 5>,
	 <5, 14, 48, 5>,
	 <5, 38, 5, 4>,
	 <9, 5, 9, 10>,
	 <9, 35, 1, 9>,
	 <9, 14, 48, 9>,
	 <9, 13, 47, 9>,
	 <9, 37, 9, 3>,
	 <9, 17, 9, 51>,
	 <9, 25, 59, 9>,
	 <10, 9, 10, 11>,
	 <10, 13, 47, 10>,
	 <10, 38, 4, 10>,
	 <10, 39, 5, 10>,
	 <10, 57, 23, 10>,
	 <10, 49, 10, 15>,
	 <11, 10, 11, 12>,
	 <11, 38, 4, 11>,
	 <11, 37, 3, 11>,
	 <11, 39, 5, 11>,
	 <11, 17, 51, 11>,
	 <11, 26, 60, 11>,
	 <11, 50, 11, 16>,
	 <11, 49, 11, 15>,
	 <12, 37, 3, 12>,
	 <12, 15, 49, 12>,
	 <12, 17, 51, 12>,
	 <12, 44, 10, 12>,
	 <12, 56, 12, 22>,
	 <12, 43, 12, 9>,
	 <13, 35, 13, 39>,
	 <38, 14, 38, 37>,
	 <37, 38, 37, 15>,
	 <15, 37, 15, 16>,
	 <39, 13, 39, 17>,
	 <17, 39, 17, 44>,
	 <44, 17, 44, 45>,
	 <45, 44, 45, 46>,
	 <46, 45, 46, 18>,
	 <46, 56, 46, 22>,
	 <46, 43, 46, 9>,
	 <18, 46, 18, 19>,
	 <18, 56, 22, 18>,
	 <18, 43, 18, 9>,
	 <19, 43, 9, 19>,
	 <19, 55, 19, 21>,
	 <19, 42, 19, 8>,
	 <20, 36, 2, 20>,
	 <20, 62, 20, 28>,
	 <20, 48, 20, 14>,
	 <21, 20, 21, 22>,
	 <21, 36, 2, 21>,
	 <21, 40, 6, 21>,
	 <21, 48, 21, 14>,
	 <21, 53, 21, 19>,
	 <22, 21, 22, 23>,
	 <22, 40, 6, 22>,
	 <22, 62, 28, 22>,
	 <22, 53, 22, 19>,
	 <23, 62, 28, 23>,
	 <23, 48, 14, 23>,
	 <51, 36, 2, 51>,
	 <51, 62, 51, 28>,
	 <51, 48, 51, 14>,
	 <52, 36, 2, 52>,
	 <52, 40, 6, 52>,
	 <52, 48, 52, 14>,
	 <52, 53, 52, 19>,
	 <24, 46, 12, 24>,
	 <24, 18, 24, 52>,
	 <24, 67, 24, 33>,
	 <24, 56, 22, 24>,
	 <24, 55, 24, 21>,
	 <24, 53, 24, 19>,
	 <25, 35, 1, 25>,
	 <25, 14, 48, 25>,
	 <25, 38, 25, 4>,
	 <25, 39, 25, 5>,
	 <25, 47, 25, 13>,
	 <57, 13, 47, 57>,
	 <57, 37, 57, 3>,
	 <57, 17, 57, 51>,
	 <57, 25, 57, 26>,
	 <26, 38, 4, 26>,
	 <26, 39, 5, 26>,
	 <26, 17, 26, 51>,
	 <26, 44, 26, 10>,
	 <26, 49, 26, 15>,
	 <28, 50, 28, 16>,
	 <60, 61, 60, 29>,
	 <60, 59, 60, 25>,
	 <29, 60, 29, 30>,
	 <29, 59, 29, 25>,
	 <29, 50, 29, 16>,
	 <30, 29, 30, 31>,
	 <30, 50, 30, 16>,
	 <31, 30, 31, 32>,
	 <31, 59, 25, 31>,
	 <32, 65, 31, 32>,
	 <33, 59, 33, 25>,
	 <54, 46, 12, 54>,
	 <54, 56, 22, 54>,
	 <54, 55, 54, 21>,
	 <54, 53, 54, 19>,
	 <67, 18, 52, 67>,
	 <67, 54, 67, 66>,
	 <67, 56, 22, 67>,
	 <67, 43, 9, 67>,
	 <67, 55, 67, 21>,
	 <67, 42, 67, 8>,
	 <66, 19, 53, 66>,
	 <66, 67, 66, 47>,
	 <66, 43, 9, 66>,
	 <66, 55, 21, 66>,
	 <66, 64, 66, 30>,
	 <47, 66, 47, 58>,
	 <47, 55, 21, 47>,
	 <47, 42, 8, 47>,
	 <47, 64, 47, 30>,
	 <58, 42, 8, 58>,
	 <58, 64, 30, 58>,
	 <43, 56, 43, 55>,
	 <55, 43, 55, 42>,
	 <42, 55, 42, 64>,
	 <40, 36, 40, 62>,
	 <62, 40, 62, 48>,
	 <48, 62, 48, 53>,
	 <68, 63, 68, 49>,
	 }; 

DirectSuccessors = {
	 }; 

